c preprocessed version of 1en2_graph, 66 vertices, 451 edges
p td 66 451
0 1
0 12
0 40
0 13
0 4
0 11
0 5
0 8
0 2
2 1
8 1
5 1
19 1
13 1
15 1
40 1
12 1
1 14
1 43
1 42
1 39
1 31
1 18
2 3
2 7
2 9
2 12
2 40
2 15
2 13
2 20
2 4
2 10
2 11
2 5
2 8
2 6
4 3
20 3
25 3
19 3
31 3
9 3
7 3
3 21
3 24
3 46
3 55
3 47
3 56
3 29
3 30
5 4
11 4
10 4
4 7
4 23
4 20
6 5
8 5
5 9
5 43
5 12
5 40
5 13
5 10
5 11
6 7
6 9
6 14
6 12
6 40
6 15
6 13
6 20
6 10
6 11
6 8
8 7
10 7
20 7
25 7
19 7
13 7
15 7
12 7
9 7
7 21
7 24
7 46
7 55
7 47
7 56
7 29
8 9
8 12
8 40
8 15
8 13
8 11
10 9
20 9
13 9
15 9
40 9
12 9
43 9
14 9
9 29
11 10
10 20
11 12
13 12
15 12
40 12
12 43
12 18
13 14
13 41
13 43
13 42
13 39
13 18
13 40
13 15
15 14
40 14
18 14
17 14
42 14
43 14
38 14
41 14
15 16
15 41
15 43
15 42
15 18
15 40
17 16
38 16
41 16
30 16
16 45
16 37
16 46
16 55
16 36
16 33
16 29
18 17
31 17
39 17
17 44
17 45
17 30
17 41
17 38
17 43
17 42
19 18
40 18
18 21
18 43
18 42
18 39
18 31
20 19
23 19
22 19
25 19
19 21
19 24
19 46
19 30
19 43
19 39
19 31
20 21
20 24
20 46
20 55
20 47
20 56
20 48
20 29
20 25
20 23
22 21
25 21
31 21
39 21
30 21
47 21
55 21
46 21
37 21
45 21
44 21
32 21
26 21
24 21
23 22
22 24
22 26
22 46
22 47
22 31
22 25
23 24
23 47
23 31
23 25
25 24
31 24
27 24
48 24
54 24
47 24
55 24
46 24
53 24
26 24
25 26
25 46
25 55
25 47
25 56
25 48
25 27
25 29
25 31
27 26
48 26
52 26
47 26
53 26
28 27
49 27
27 51
27 53
27 55
27 47
27 56
27 54
27 52
27 48
29 28
33 28
28 51
28 37
28 46
28 55
28 56
28 54
28 52
28 49
28 35
28 50
28 36
30 29
29 37
29 46
29 55
29 56
29 33
31 30
39 30
43 30
38 30
41 30
30 32
30 44
30 45
30 37
30 46
30 33
31 32
31 44
31 45
31 46
31 43
31 42
31 39
33 32
35 32
37 32
45 32
44 32
32 34
32 57
32 51
33 34
33 57
33 51
33 45
33 37
33 46
33 55
33 49
33 35
33 50
33 36
35 34
37 34
44 34
45 34
51 34
57 34
36 35
50 35
35 57
35 51
35 37
35 54
35 49
36 37
36 55
36 54
36 49
36 50
38 37
46 37
37 57
37 51
37 44
37 45
39 38
42 38
43 38
38 44
38 45
38 41
40 39
39 44
39 45
39 43
39 42
40 41
40 43
40 42
42 41
42 43
45 44
46 45
47 46
55 46
48 47
52 47
54 47
56 47
47 55
49 48
48 53
48 56
48 54
48 52
50 49
49 51
49 53
49 55
49 56
49 54
49 52
50 51
50 55
50 54
50 52
52 51
54 51
53 51
51 57
52 53
52 55
52 56
52 54
54 53
53 57
54 55
54 56
56 55
58 24
58 26
58 27
58 63
58 35
58 49
58 51
58 53
58 62
58 57
58 60
58 61
58 64
58 59
59 61
59 64
59 27
59 48
59 24
59 26
59 63
59 62
59 51
59 53
59 60
60 61
60 62
60 64
60 26
60 27
60 63
60 35
60 49
60 51
60 52
60 53
60 57
61 65
61 64
61 63
61 62
61 34
61 57
62 65
62 63
62 35
62 51
62 57
62 34
62 64
63 65
63 32
63 33
63 35
63 53
63 51
63 57
63 34
63 64
64 65
64 26
64 57
64 51
65 58
65 59
65 60
65 32
65 44
65 57
65 34
